486805
73,26,14,70,90,15,71,81,34,103,30,4,29,28,84,72,52,50,53,31,96,80,47,61,44,51,20,6,0,86,27,43,65,58,9,22,46,87,25,10,66,60,38,32,54,64,8,74,3,24,45,85,35,7,36,19,83,2,93,59,77,21,76,68,1,62,99,82,97,18,11,56,5,17,33,102,41,67,69,94,104,40,37,100,88,49,101,105,55,13,75,78,95,89,12,57,42,48,98,23,79,92,91,63,39,16
